CMD:
./solvers/bin/cadical --plain --no-reduce -t 1600 ./data/cnfs//vgasim_imgfifo-p093/vgasim_imgfifo-p093.39.cnf

c --- [ banner ] -------------------------------------------------------------
c 
c CaDiCaL SAT Solver
c Copyright (c) 2016-2024
c A. Biere, M. Fleury, N. Froleyks, K. Fazekas, F. Pollitt, T. Faller
c JKU Linz, University of Freiburg, TU Wien
c 
c Version 2.1.3 5296d3d2a9bf48c154ab2acb5e44625776d821bf
c g++ (Gentoo 12.3.1_p20230526 p2) 12.3.1 20230526 -Wall -Wextra -O3 -DNDEBUG
c Sat Aug 9 07:26:21 PDT 2025 Linux cedar2.int.cedar.computecanada.ca 5.14.0-362.24.2.el9_3.x86_64 x86_64
c 
c --- [ limit ] --------------------------------------------------------------
c 
c setting time limit to 1600 seconds real time (due to '-t 1600')
c 
c --- [ parsing input ] ------------------------------------------------------
c 
c reading DIMACS file from './data/cnfs//vgasim_imgfifo-p093/vgasim_imgfifo-p093.39.cnf'
c opening file to read './data/cnfs//vgasim_imgfifo-p093/vgasim_imgfifo-p093.39.cnf'
c found 'p cnf 191118 551128' header
c parsed 551128 clauses in 0.08 seconds process time
c 
c --- [ options ] ------------------------------------------------------------
c 
c   --compact=false                (different from default 'true')
c   --decompose=false              (different from default 'true')
c   --deduplicate=false            (different from default 'true')
c   --elim=false                   (different from default 'true')
c   --probe=false                  (different from default 'true')
c   --reduce=false                 (different from default 'true')
c   --subsume=false                (different from default 'true')
c   --ternary=false                (different from default 'true')
c   --transred=false               (different from default 'true')
c   --vivify=false                 (different from default 'true')
c 
c --- [ solving ] ------------------------------------------------------------
c 
c time measured in process time since initialization
c 
c  seconds  reductions  redundant  irredundant
c         MB    restarts       trail       variables
c          level   conflicts       glue          remaining
c 
c *  0.08 86  0 0   0    0    0  0% 0 514102 151849 79%
c {  0.09 87  0 0   0    0    0  0% 0 514102 151849 79%
c i  0.11 87 27 0   1   49   39 26% 4 514102 151746 79%
c i  0.11 87 27 0   1   50   39 26% 4 514102 151731 79%
c i  0.11 87 27 0   1   52   40 26% 3 514102 151716 79%
c i  0.12 87 27 0   1   54   41 26% 3 514102 151701 79%
c i  0.12 87 27 0   1   55   41 26% 3 514102 150581 79%
c i  0.12 87 24 0   1   90   72 26% 3 514102 150553 79%
c i  0.12 87 24 0   1   93   74 26% 3 514102 150521 79%
c i  0.12 87 23 0   1   94   74 26% 3 514102 150049 79%
c i  0.14 88 36 0   1  118   95 29% 3 514102 150047 79%
c i  0.17 88 31 0   1  162  122 29% 3 514102 149737 78%
c i  0.19 88 30 0   1  173  126 29% 3 514102 149656 78%
c i  0.21 88 30 0   1  180  131 29% 3 514102 149652 78%
c i  0.21 88 30 0   1  181  131 29% 3 514102 149642 78%
c }  0.21 88 29 0   1  183  131 29% 3 514102 147462 77%
c 0  0.21 88 29 0   1  183  131 29% 3 514102 147462 77%
c 
c --- [ result ] -------------------------------------------------------------
c 
s UNSATISFIABLE
c 
c --- [ run-time profiling ] -------------------------------------------------
c 
c process time taken by individual solving procedures
c (percentage relative to process time for solving)
c 
c         0.13   99.92% search
c         0.12   92.40% unstable
c         0.08   64.96% parse
c         0.01    7.50% lucky
c         0.00    0.00% simplify
c   =================================
c         0.13   60.50% solve
c 
c last line shows process time for solving
c (percentage relative to total process time)
c 
c --- [ statistics ] ---------------------------------------------------------
c 
c chronological:                69        37.70 %  of conflicts
c conflicts:                   183      1406.79    per second
c decisions:                   576      4427.94    per second
c fixed:                     43608        22.82 %  of all variables
c learned:                     179        97.81 %  per conflict
c learned_lits:               2272       100.00 %  learned literals
c minimized:                     0         0.00 %  learned literals
c shrunken:                    743        32.70 %  learned literals
c minishrunken:                423        18.62 %  learned literals
c otfs:                          1         0.55 %  of conflict
c propagations:            1226616         9.43 M  per second
c restarts:                      1       183.00    interval
c subsumed:                     34         0.01 %  of all clauses
c strengthened:                  1         0.00 %  of all clauses
c 
c seconds are measured in process time for solving
c 
c --- [ resources ] ----------------------------------------------------------
c 
c total process time since initialization:         0.22    seconds
c total real time since initialization:            0.22    seconds
c maximum resident set size of process:           87.42    MB
c 
c --- [ shutting down ] ------------------------------------------------------
c 
c exit 20
